3205.79 0
0 141 91 58 51 112 105 108 75 10 8 4 7 3 9 17 5 16 2 150 0
0 54 136 129 130 134 125 101 127 89 30 88 78 0
0 149 139 144 80 85 120 93 95 96 94 0
0 36 25 132 118 126 73 67 72 0
0 64 135 115 119 22 113 114 117 70 68 123 21 66 0
0 57 46 45 39 65 71 69 0
0 107 102 138 148 90 142 84 86 147 0
0 111 81 97 76 0
0 145 146 6 1 14 13 12 11 15 104 98 109 0
0 87 110 82 79 92 32 140 52 143 0
0 24 23 31 26 28 19 35 18 0
0 106 100 99 42 48 50 49 47 40 38 43 44 41 103 0
0 61 60 55 63 137 83 77 20 74 124 33 0
0 53 59 56 62 0
0 27 131 133 128 116 122 121 29 37 34 0